p edge 40 199 5
v 14 2 5 7 8 9 14 18 19 22 24 26 30 31 40
v 8 13 17 23 29 32 33 37 38
v 7 6 10 12 20 21 27 28
v 6 1 4 11 15 16 36
v 5 3 25 34 35 39
e 1 8
e 1 17
e 1 25
e 1 30
e 1 31
e 1 35
e 1 36
e 1 37
e 1 39
e 2 15
e 2 18
e 2 20
e 2 21
e 2 23
e 2 25
e 2 29
e 2 33
e 2 36
e 3 4
e 3 21
e 3 23
e 3 25
e 3 31
e 3 35
e 3 39
e 4 6
e 4 7
e 4 10
e 4 12
e 4 14
e 4 18
e 4 23
e 4 25
e 4 27
e 4 28
e 4 29
e 4 31
e 4 34
e 4 39
e 5 8
e 5 9
e 5 10
e 5 11
e 5 14
e 5 17
e 5 30
e 5 31
e 5 32
e 5 33
e 5 36
e 5 38
e 6 8
e 6 16
e 6 20
e 6 28
e 6 30
e 6 31
e 6 34
e 6 36
e 6 37
e 7 10
e 7 11
e 7 22
e 7 23
e 7 25
e 7 27
e 7 31
e 7 34
e 7 39
e 8 12
e 8 16
e 8 17
e 8 19
e 8 20
e 8 23
e 8 24
e 8 25
e 8 33
e 8 35
e 9 13
e 9 14
e 9 19
e 9 20
e 9 21
e 9 24
e 9 31
e 9 32
e 9 38
e 9 40
e 10 11
e 10 22
e 10 26
e 10 33
e 10 40
e 11 13
e 11 17
e 11 20
e 11 26
e 11 27
e 11 28
e 11 30
e 11 35
e 12 17
e 12 18
e 12 21
e 12 23
e 12 27
e 12 35
e 12 37
e 12 38
e 13 16
e 13 19
e 13 23
e 13 25
e 13 27
e 13 28
e 13 32
e 13 37
e 13 38
e 13 39
e 14 16
e 14 17
e 14 23
e 14 37
e 14 38
e 15 22
e 15 24
e 15 26
e 15 29
e 15 34
e 15 37
e 16 19
e 16 21
e 16 23
e 16 27
e 16 28
e 16 37
e 16 39
e 17 21
e 17 22
e 17 24
e 17 35
e 17 36
e 17 37
e 18 27
e 18 31
e 18 32
e 18 37
e 18 40
e 19 22
e 19 26
e 19 27
e 19 33
e 20 23
e 20 26
e 20 27
e 20 29
e 20 31
e 20 35
e 20 37
e 20 39
e 21 27
e 21 28
e 21 29
e 21 34
e 21 39
e 22 25
e 22 26
e 22 31
e 22 36
e 22 38
e 23 25
e 23 27
e 23 28
e 23 34
e 23 38
e 24 27
e 24 39
e 25 27
e 25 32
e 25 34
e 25 37
e 26 29
e 26 33
e 26 38
e 26 39
e 27 32
e 28 35
e 29 39
e 30 33
e 31 35
e 31 36
e 31 40
e 32 39
e 34 36
e 35 37
e 35 39
e 36 37
e 36 38
